c SAT Generator for power-law distributed variable frequencies
c -g u -v 20 -c 91 -k 3 -p 2.750000 -b 3.200000 -f /home/schmidt/Devel/ni-kop-sat/data/ensemble/ruf20-91/ruf20-91-156 -u 1 -U 1 -s 2504502779
p cnf 20 91
5 -12 17 0
1 -5 6 0
-11 16 19 0
-2 -16 20 0
9 -12 -17 0
-3 -8 -19 0
3 13 -15 0
11 -15 -18 0
-3 5 13 0
2 -6 -16 0
-8 19 -20 0
-4 9 -19 0
1 15 -17 0
-5 -19 -20 0
-12 16 19 0
5 15 -17 0
1 14 15 0
-2 -13 19 0
-3 7 18 0
-3 -6 15 0
-8 13 -14 0
-6 -8 17 0
3 7 -20 0
-6 13 14 0
-1 -6 -20 0
5 -12 -18 0
5 -12 -14 0
2 11 -18 0
-8 13 -18 0
1 -10 14 0
-4 6 -7 0
9 -13 16 0
6 10 13 0
8 10 15 0
2 10 15 0
-5 -8 11 0
3 -13 20 0
4 9 -20 0
-13 -14 -16 0
-1 14 18 0
-3 -4 12 0
-5 -13 14 0
6 -7 10 0
-10 -13 -15 0
6 11 -14 0
1 -15 17 0
3 -17 -20 0
-1 -16 18 0
6 -16 -17 0
3 -17 -18 0
2 13 20 0
-1 -2 -14 0
13 -16 18 0
5 9 13 0
1 4 11 0
4 5 18 0
-7 -11 12 0
10 15 -16 0
8 18 19 0
-6 -11 19 0
3 -4 16 0
4 10 -12 0
2 -15 16 0
11 -13 20 0
7 14 -15 0
-12 -15 17 0
2 17 -20 0
-7 -11 -16 0
-6 13 17 0
-2 6 17 0
-1 -6 12 0
-11 19 20 0
-2 4 -7 0
3 -10 17 0
-2 -13 -17 0
-1 3 -9 0
-4 7 -16 0
1 -14 -18 0
-4 11 -14 0
11 -15 16 0
-4 -15 -17 0
-2 3 -20 0
-1 2 9 0
14 18 19 0
13 19 20 0
1 -8 10 0
-2 -14 18 0
-6 12 17 0
5 6 15 0
1 -3 -9 0
-13 16 17 0
